RAW/CMTT/fspd-mid/CMT12T.vrp_seed-6.out
787.5181454	5.464	163.871
