RAW/CMTT/fspd-mid/CMT12T.vrp_seed-6.sol
Route #1: 47 49 52 50 51 48 45 46 44 42 43
Route #2: 98 96 95 94 92 93 97 100 99 1 75
Route #3: 68 55 57 54 53 56 58 60 59 40 41
Route #4: 32 33 31 35 37 38 39 36 34 20
Route #5: 13 17 18 19 15 16 14 12 11 10
Route #6: 23 26 28 30 29 27 25 24 22 21
Route #7: 67 65 63 62 74 72 61 64 66 69
Route #8: 5 3 7 8 9 6 4 2 91 88 86 87 90
Route #9: 89 85 84 83 82 81 78 76 71 70 73 77 79 80
Cost 787.518145